
Gurobi 5.6.2 (mac64) logging started Mon Dec 21 22:08:22 2015


Gurobi 5.6.2 (mac64) logging started Mon Dec 21 22:08:35 2015


Gurobi 5.6.2 (mac64) logging started Mon Dec 21 22:09:23 2015


Gurobi 5.6.2 (mac64) logging started Mon Dec 21 22:09:40 2015


Gurobi 5.6.2 (mac64) logging started Mon Dec 21 22:10:39 2015


Gurobi 5.6.2 (mac64) logging started Mon Dec 21 22:17:35 2015


Gurobi 5.6.2 (mac64) logging started Mon Dec 21 22:21:29 2015


Gurobi 5.6.2 (mac64) logging started Mon Dec 21 22:24:27 2015


Gurobi 5.6.2 (mac64) logging started Mon Dec 21 22:29:45 2015


Gurobi 5.6.2 (mac64) logging started Mon Dec 21 22:30:03 2015


Gurobi 5.6.2 (mac64) logging started Mon Dec 21 22:30:07 2015


Gurobi 5.6.2 (mac64) logging started Mon Dec 21 22:30:25 2015


Gurobi 5.6.2 (mac64) logging started Mon Dec 21 22:30:49 2015


Gurobi 5.6.2 (mac64) logging started Mon Dec 21 22:37:06 2015


Gurobi 5.6.2 (mac64) logging started Mon Dec 21 22:37:20 2015


Gurobi 5.6.2 (mac64) logging started Mon Dec 21 22:46:46 2015


Gurobi 5.6.2 (mac64) logging started Mon Dec 21 22:47:19 2015


Gurobi 5.6.2 (mac64) logging started Tue Dec 22 11:17:27 2015


Gurobi 5.6.2 (mac64) logging started Tue Dec 22 11:17:44 2015


Gurobi 5.6.2 (mac64) logging started Thu Jan  7 18:08:35 2016


Gurobi 5.6.2 (mac64) logging started Thu Jan  7 18:09:59 2016


Gurobi 5.6.2 (mac64) logging started Thu Jan  7 18:10:50 2016


Gurobi 5.6.2 (mac64) logging started Thu Jan  7 18:11:21 2016


Gurobi 5.6.2 (mac64) logging started Thu Jan  7 18:12:07 2016


Gurobi 5.6.2 (mac64) logging started Thu Jan  7 18:12:18 2016


Gurobi 5.6.2 (mac64) logging started Thu Jan  7 18:12:38 2016


Gurobi 5.6.2 (mac64) logging started Thu Jan  7 18:12:41 2016


Gurobi 5.6.2 (mac64) logging started Thu Jan  7 18:13:46 2016


Gurobi 5.6.2 (mac64) logging started Thu Jan  7 18:16:29 2016


Gurobi 5.6.2 (mac64) logging started Thu Jan  7 18:17:41 2016


Gurobi 5.6.2 (mac64) logging started Thu Jan  7 18:17:49 2016


Gurobi 5.6.2 (mac64) logging started Fri Jan  8 08:45:31 2016


Gurobi 5.6.2 (mac64) logging started Fri Jan  8 08:46:19 2016


Gurobi 5.6.2 (mac64) logging started Fri Jan  8 08:46:38 2016


Gurobi 5.6.2 (mac64) logging started Fri Jan  8 08:47:07 2016


Gurobi 5.6.2 (mac64) logging started Fri Jan  8 08:48:08 2016


Gurobi 5.6.2 (mac64) logging started Fri Jan  8 08:51:55 2016


Gurobi 5.6.2 (mac64) logging started Fri Jan  8 08:54:22 2016


Gurobi 5.6.2 (mac64) logging started Wed Jan 27 12:55:40 2016

